\* Problem: Unknown *\

Maximize
 obj: + xp_0_0 + xp_1_0 + xp_1_1 + xp_2_0 + xp_2_1 + xp_3_0 + xp_3_1
 + xp_4_0 + xp_4_1 + xp_5_0 + xp_6_0 + xp_7_0 + xp_8_0 + xp_9_0 + xp_9_1
 + xp_10_0 + xp_11_0 + xp_11_1 + xp_12_0 + xp_12_1 + xp_12_2 + xp_13_0
 + xp_13_1 + xp_13_2 + xp_14_0 + xp_14_1 + xp_15_0 + xp_16_0 + xp_17_0
 + xp_17_1 + xp_18_0 + xp_18_1 + xp_18_2 + xp_18_3 + xp_19_0 + xp_19_1
 + xp_20_0 + xp_21_0 + xp_22_0 + xp_22_1 + xp_23_0 + xp_24_0 + xp_24_1
 + xp_24_2 + xp_25_0 + xp_26_0 + xp_27_0 + xp_28_0 + xp_28_1 + xp_29_0
 + xp_30_0 + xp_30_1 + xp_31_0 + xp_32_0 + xp_32_1 + xp_33_0 + xp_34_0
 + xp_34_1 + xp_35_0 + xp_36_0 + xp_37_0 + xp_38_0 + xp_38_1 + xp_39_0
 + xp_40_0 + xp_40_1 + xp_40_2 + xp_41_0 + xp_42_0 + xp_42_1 + xp_42_2
 + xp_43_0 + xp_44_0 + xp_45_0 + xp_46_0 + xp_47_0 + xp_48_0 + xp_49_0
 + xp_50_0 + xp_50_1 + xp_51_0 + xp_52_0 + xp_53_0 + xp_53_1 + xp_54_0
 + xp_55_0 + xp_56_0 + xp_57_0 + xp_57_1 + xp_58_0 + xp_58_1 + xp_58_2
 + xp_58_3 + xp_59_0 + xp_60_0 + xp_60_1 + xp_61_0 + xp_61_1 + xp_62_0
 + xp_63_0 + xp_63_1 + xp_64_0 + xp_65_0 + xp_65_1 + xp_66_0 + xp_67_0
 + xp_67_1 + xp_68_0 + xp_68_1 + xp_69_0 + xp_70_0 + xp_71_0 + xp_72_0
 + xp_73_0 + xp_74_0 + xp_74_1 + xp_75_0 + xp_76_0 + xp_77_0 + xp_77_1
 + xp_77_2 + xp_78_0 + xp_78_1 + xp_78_2 + xp_78_3 + xp_78_4 + xp_79_0
 + xp_79_1 + xp_79_2 + xp_80_0 + xp_80_1 + xp_81_0 + xp_81_1 + xp_81_2
 + xp_82_0 + xp_82_1 + xp_83_0 + xp_84_0 + xp_85_0 + xp_85_1 + xp_86_0
 + xp_87_0 + xp_88_0 + xp_89_0 + xp_89_1 + xp_90_0 + xp_90_1 + xp_90_2
 + xp_91_0 + xp_91_1 + xp_92_0 + xp_92_1 + xp_93_0 + xp_94_0 + xp_94_1
 + xp_94_2 + xp_95_0 + xp_95_1 + xp_95_2 + xp_96_0 + xp_96_1 + xp_97_0
 + xp_98_0 + xp_98_1 + xp_99_0 + xp_99_1 + xp_100_0 + xp_101_0
 + xp_102_0 + xp_103_0 + xp_104_0 + xp_105_0 + xp_105_1 + xp_106_0
 + xp_107_0 + xp_108_0 + xp_108_1 + xp_108_2 + xp_109_0 + xp_109_1
 + xp_110_0 + xp_111_0 + xp_111_1 + xp_112_0 + xp_113_0 + xp_114_0
 + xp_115_0 + xp_115_1 + xp_116_0 + xp_116_1 + xp_117_0 + xp_118_0
 + xp_119_0 + xp_119_1 + xp_120_0 + xp_120_1 + xp_120_2 + xp_121_0
 + xp_122_0 + xp_123_0 + xp_123_1 + xp_124_0 + xp_125_0 + xp_125_1
 + xp_126_0 + xp_126_1 + xp_126_2 + xp_126_3 + xp_126_4 + xp_127_0
 + xp_127_1 + xp_128_0 + xp_128_1 + xp_128_2 + xp_129_0 + xp_129_1
 + xp_130_0 + xp_131_0 + xp_131_1 + xp_131_2

Subject To
 r_1: + xp_128_2 + xp_128_1 + xp_123_1 + xp_122_0 + xp_121_0 + xp_108_2
 + xp_107_0 + xp_78_3 + xp_67_1 + xp_57_1 + xp_40_2 + xp_40_1 + xp_25_0
 + xp_22_1 + xp_18_3 + xp_18_2 + xp_18_1 + xp_16_0 + xp_13_2 + xp_13_1
 + xp_4_0 <= 40000
 r_2: + xp_131_2 + xp_131_1 + xp_127_1 + xp_126_4 + xp_126_1 + xp_120_1
 + xp_120_0 + xp_94_2 + xp_94_1 + xp_93_0 + xp_90_1 + xp_89_1 + xp_85_1
 + xp_85_0 + xp_77_2 + xp_77_1 + xp_75_0 + xp_74_1 + xp_71_0 + xp_66_0
 + xp_65_1 + xp_65_0 + xp_61_1 + xp_55_0 + xp_52_0 + xp_48_0 + xp_42_2
 + xp_42_1 + xp_38_1 + xp_32_0 + xp_28_1 + xp_28_0 + xp_24_2 + xp_24_0
 + xp_19_1 + xp_19_0 + xp_12_2 + xp_12_1 + xp_1_1 <= 39788.2938978829
 r_3: + xp_126_3 + xp_114_0 + xp_105_1 + xp_95_0 + xp_79_2 + xp_76_0
 + xp_58_2 + xp_34_0 <= 40000
 r_4: + xp_117_0 + xp_95_2 + xp_95_1 + xp_91_1 + xp_91_0 + xp_84_0
 + xp_79_1 + xp_79_0 + xp_78_4 + xp_46_0 + xp_43_0 + xp_40_2 + xp_40_1
 + xp_40_0 + xp_34_1 <= 40000
 r_5: + xp_130_0 + xp_99_0 + xp_78_4 + xp_7_0 + xp_2_0 <= 40000
 r_6: + xp_126_3 + xp_126_2 + xp_119_0 + xp_114_0 + xp_95_0 + xp_83_0
 + xp_82_1 + xp_81_0 + xp_79_2 + xp_70_0 + xp_68_1 + xp_58_2 + xp_58_1
 + xp_53_0 + xp_45_0 + xp_34_0 + xp_32_1 + xp_30_1 + xp_18_1 <= 40000
 r_7: + xp_119_1 + xp_111_1 + xp_104_0 + xp_88_0 + xp_82_0 + xp_81_2
 + xp_81_1 + xp_78_2 + xp_53_1 + xp_50_1 + xp_44_0 + xp_27_0 + xp_18_3
 + xp_18_2 + xp_18_0 + xp_4_1 + xp_3_1 <= 40000
 r_8: + xp_131_2 + xp_131_1 + xp_127_1 + xp_126_4 + xp_126_1 + xp_120_1
 + xp_120_0 + xp_118_0 + xp_103_0 + xp_94_2 + xp_94_1 + xp_90_1
 + xp_89_1 + xp_77_2 + xp_77_1 + xp_74_1 + xp_71_0 + xp_61_1 + xp_55_0
 + xp_42_2 + xp_42_1 + xp_38_1 + xp_32_0 + xp_24_2 + xp_24_0 + xp_12_2
 + xp_12_1 + xp_1_1 <= 40000
 r_9: + xp_131_0 + xp_127_0 + xp_123_1 + xp_122_0 + xp_120_2 + xp_108_2
 + xp_78_3 + xp_77_0 + xp_67_1 + xp_57_1 + xp_42_0 + xp_33_0 + xp_32_1
 + xp_24_1 <= 40000
 r_10: + xp_111_1 + xp_106_0 + xp_99_0 + xp_98_0 + xp_94_1 + xp_88_0
 + xp_85_0 + xp_78_4 + xp_78_2 + xp_50_1 + xp_26_0 + xp_24_0 + xp_8_0
 + xp_7_0 + xp_4_1 + xp_3_1 + xp_2_0 <= 40000
 r_11: + xp_119_0 + xp_112_0 + xp_111_0 + xp_95_0 + xp_82_1 + xp_81_0
 + xp_79_2 + xp_78_3 + xp_78_1 + xp_78_0 + xp_59_0 + xp_53_0 + xp_50_0
 + xp_49_0 + xp_45_0 + xp_34_0 + xp_18_1 + xp_4_0 + xp_3_0 <= 40000
 r_12: + xp_129_1 + xp_128_1 + xp_128_0 + xp_123_0 + xp_119_1 + xp_117_0
 + xp_111_1 + xp_108_1 + xp_101_0 + xp_95_1 + xp_91_1 + xp_82_0
 + xp_81_1 + xp_80_1 + xp_79_1 + xp_78_4 + xp_78_2 + xp_78_0 + xp_73_0
 + xp_63_1 + xp_60_1 + xp_50_1 + xp_46_0 + xp_44_0 + xp_40_1 + xp_40_0
 + xp_18_2 + xp_18_0 + xp_17_1 + xp_15_0 + xp_14_1 + xp_13_1 + xp_13_0
 + xp_9_0 + xp_4_1 <= 40000
 r_13: + xp_129_0 + xp_128_2 + xp_126_4 + xp_123_1 + xp_120_2 + xp_120_1
 + xp_109_1 + xp_100_0 + xp_96_1 + xp_95_2 + xp_92_1 + xp_91_0 + xp_90_0
 + xp_81_2 + xp_80_0 + xp_79_0 + xp_68_0 + xp_63_0 + xp_60_0 + xp_58_3
 + xp_53_1 + xp_40_2 + xp_34_1 + xp_31_0 + xp_30_0 + xp_18_3 + xp_17_0
 + xp_13_2 + xp_9_1 <= 40000
 r_14: + xp_131_2 + xp_131_1 + xp_131_0 + xp_126_3 + xp_126_2 + xp_125_1
 + xp_125_0 + xp_124_0 + xp_115_1 + xp_115_0 + xp_99_1 + xp_98_1
 + xp_94_2 + xp_94_0 + xp_86_0 + xp_85_1 + xp_77_2 + xp_77_1 + xp_77_0
 + xp_68_1 + xp_65_1 + xp_65_0 + xp_58_2 + xp_58_1 + xp_56_0 + xp_51_0
 + xp_41_0 + xp_38_1 + xp_38_0 + xp_35_0 + xp_32_1 + xp_30_1 + xp_24_2
 + xp_24_1 + xp_20_0 + xp_19_1 + xp_19_0 + xp_12_2 + xp_12_1 + xp_12_0
 + xp_2_1 + xp_0_0 <= 40000
 r_15: + xp_131_2 + xp_131_0 + xp_126_4 + xp_126_3 + xp_126_2 + xp_125_0
 + xp_124_0 + xp_120_2 + xp_120_1 + xp_116_0 + xp_115_0 + xp_109_1
 + xp_99_1 + xp_98_1 + xp_96_1 + xp_94_2 + xp_94_0 + xp_92_1 + xp_90_0
 + xp_89_1 + xp_89_0 + xp_86_0 + xp_85_1 + xp_77_2 + xp_77_0 + xp_68_1
 + xp_68_0 + xp_65_0 + xp_58_3 + xp_58_2 + xp_58_1 + xp_51_0 + xp_42_2
 + xp_42_0 + xp_38_1 + xp_38_0 + xp_36_0 + xp_32_1 + xp_28_1 + xp_24_2
 + xp_24_1 + xp_19_1 + xp_12_2 + xp_12_0 + xp_11_0 + xp_0_0 <= 40000
 r_16: + xp_128_0 + xp_123_0 + xp_108_1 + xp_108_0 + xp_78_4 + xp_78_2
 + xp_78_1 + xp_78_0 + xp_73_0 + xp_67_0 + xp_57_0 + xp_46_0 + xp_44_0
 + xp_40_0 + xp_22_0 + xp_18_0 + xp_13_0 + xp_6_0 + xp_4_1 <= 40000
 r_17: + xp_129_1 + xp_128_1 + xp_126_0 + xp_119_1 + xp_111_1 + xp_109_0
 + xp_97_0 + xp_95_1 + xp_91_1 + xp_90_2 + xp_81_1 + xp_80_1 + xp_79_1
 + xp_63_1 + xp_62_0 + xp_61_0 + xp_60_1 + xp_47_0 + xp_40_1 + xp_22_1
 + xp_18_2 + xp_17_1 + xp_13_1 + xp_9_0 + xp_1_0 <= 39788.2938978829
 r_18: + xp_126_4 + xp_126_1 + xp_126_0 + xp_106_0 + xp_99_0 + xp_98_0
 + xp_94_1 + xp_92_1 + xp_92_0 + xp_85_0 + xp_68_0 + xp_58_3 + xp_58_0
 + xp_48_0 + xp_32_0 + xp_30_0 + xp_26_0 + xp_24_0 + xp_5_0 + xp_2_0
 <= 40000
 r_19: + xp_131_1 + xp_125_1 + xp_116_1 + xp_115_1 + xp_110_0 + xp_108_1
 + xp_78_0 + xp_77_1 + xp_65_1 + xp_56_0 + xp_42_1 + xp_28_0 + xp_19_0
 + xp_14_1 + xp_12_1 + xp_11_1 + xp_3_0 + xp_2_1 <= 40000
 r_20: + xp_129_0 + xp_128_2 + xp_123_1 + xp_119_0 + xp_112_0 + xp_111_0
 + xp_108_2 + xp_108_0 + xp_107_0 + xp_95_2 + xp_95_0 + xp_91_0
 + xp_82_1 + xp_81_2 + xp_81_0 + xp_80_0 + xp_79_2 + xp_79_0 + xp_78_3
 + xp_78_1 + xp_69_0 + xp_64_0 + xp_63_0 + xp_60_0 + xp_50_0 + xp_49_0
 + xp_45_0 + xp_40_2 + xp_18_3 + xp_18_1 + xp_17_0 + xp_14_0 + xp_13_2
 + xp_10_0 + xp_9_1 + xp_4_0 <= 39788.2938978829
 r_21: + xp_126_3 + xp_113_0 + xp_105_1 + xp_99_1 + xp_86_0 + xp_77_2
 + xp_77_1 + xp_77_0 + xp_65_1 + xp_65_0 + xp_58_2 + xp_38_1 + xp_38_0
 + xp_20_0 + xp_2_1 + xp_0_0 <= 40000
 r_22: + xp_126_2 + xp_124_0 + xp_105_0 + xp_98_1 + xp_94_2 + xp_94_0
 + xp_85_1 + xp_83_0 + xp_68_1 + xp_58_1 + xp_41_0 + xp_32_1 + xp_30_1
 + xp_24_2 + xp_24_1 <= 40000
 r_23: + xp_128_2 + xp_128_1 + xp_128_0 + xp_119_1 + xp_117_0 + xp_111_1
 + xp_104_0 + xp_100_0 + xp_95_2 + xp_95_1 + xp_91_1 + xp_91_0 + xp_84_0
 + xp_82_0 + xp_81_2 + xp_81_1 + xp_80_1 + xp_80_0 + xp_79_1 + xp_79_0
 + xp_78_4 + xp_78_2 + xp_73_0 + xp_60_1 + xp_60_0 + xp_53_1 + xp_50_1
 + xp_46_0 + xp_44_0 + xp_40_2 + xp_40_1 + xp_40_0 + xp_34_1 + xp_21_0
 + xp_18_3 + xp_18_2 + xp_18_0 + xp_15_0 + xp_9_1 + xp_9_0 + xp_4_1
 + xp_3_1 <= 40000
 r_24: + xp_128_0 + xp_126_4 + xp_126_1 + xp_103_0 + xp_94_2 + xp_94_1
 + xp_90_1 + xp_89_1 + xp_74_1 + xp_61_1 + xp_40_0 + xp_39_0 + xp_38_1
 + xp_22_0 + xp_18_0 + xp_13_0 + xp_12_2 + xp_12_1 + xp_4_1 + xp_1_1
 <= 40000
 r_25: + xp_131_0 + xp_127_0 + xp_126_3 + xp_126_2 + xp_126_0 + xp_120_2
 + xp_94_0 + xp_90_2 + xp_90_0 + xp_89_0 + xp_77_0 + xp_74_0 + xp_61_0
 + xp_42_0 + xp_38_0 + xp_32_1 + xp_24_1 + xp_12_0 + xp_1_0 <= 40000
 r_26: + xp_128_2 + xp_128_1 + xp_123_1 + xp_121_0 + xp_112_0 + xp_108_2
 + xp_107_0 + xp_81_2 + xp_81_1 + xp_81_0 + xp_79_2 + xp_79_1 + xp_79_0
 + xp_78_3 + xp_67_1 + xp_64_0 + xp_60_1 + xp_60_0 + xp_57_1 + xp_47_0
 + xp_40_2 + xp_40_1 + xp_37_0 + xp_29_0 + xp_25_0 + xp_22_1 + xp_18_3
 + xp_18_2 + xp_18_1 + xp_17_1 + xp_17_0 + xp_13_2 + xp_13_1 + xp_4_0
 <= 39788.2938978829
 r_27: + xp_131_2 + xp_127_1 + xp_126_4 + xp_125_0 + xp_120_1 + xp_116_0
 + xp_115_0 + xp_108_0 + xp_99_1 + xp_98_1 + xp_96_1 + xp_94_2 + xp_92_1
 + xp_89_1 + xp_86_0 + xp_85_1 + xp_82_1 + xp_78_1 + xp_77_2 + xp_74_1
 + xp_72_0 + xp_67_0 + xp_65_0 + xp_58_3 + xp_58_2 + xp_58_1 + xp_57_0
 + xp_52_0 + xp_50_0 + xp_42_2 + xp_38_1 + xp_28_1 + xp_24_2 + xp_23_0
 + xp_19_1 + xp_14_0 + xp_12_2 + xp_11_0 <= 39788.2938978829
 r_28: + xp_131_1 + xp_126_1 + xp_126_0 + xp_125_1 + xp_120_0 + xp_116_1
 + xp_115_1 + xp_109_0 + xp_99_0 + xp_98_0 + xp_96_0 + xp_94_1 + xp_92_0
 + xp_90_2 + xp_90_1 + xp_85_0 + xp_77_1 + xp_75_0 + xp_65_1 + xp_58_0
 + xp_54_0 + xp_48_0 + xp_42_1 + xp_32_0 + xp_28_0 + xp_26_0 + xp_24_0
 + xp_19_0 + xp_12_1 + xp_11_1 <= 39788.2938978829
 r_29: + xp_129_1 + xp_129_0 + xp_95_2 + xp_95_1 + xp_95_0 + xp_93_0
 + xp_87_0 + xp_71_0 + xp_62_0 + xp_49_0 + xp_45_0 + xp_10_0 + xp_9_1
 + xp_9_0 + xp_1_1 + xp_1_0 <= 39788.2938978829
 r_30: + xp_125_1 + xp_125_0 + xp_121_0 + xp_102_0 + xp_99_1 + xp_99_0
 + xp_96_1 + xp_96_0 + xp_92_1 + xp_92_0 + xp_57_1 + xp_57_0 + xp_37_0
 + xp_26_0 + xp_23_0 + xp_11_1 + xp_11_0 <= 39788.2938978829

Bounds
 0 <= xp_0_0 <= 235.262118837672
 0 <= xp_1_0 <= 101.129123088199
 0 <= xp_1_1 <= 80.9032984705589
 0 <= xp_2_0 <= 38.2246180048173
 0 <= xp_2_1 <= 76.4492360096346
 0 <= xp_3_0 <= 100.983088253414
 0 <= xp_3_1 <= 80.7864706027314
 0 <= xp_4_0 <= 699.156375013805
 0 <= xp_4_1 <= 87.3945468767256
 0 <= xp_5_0 <= 1080.16856070805
 0 <= xp_6_0 <= 1786.6120739776
 0 <= xp_7_0 <= 636.390603023469
 0 <= xp_8_0 <= 1505.28326650718
 0 <= xp_9_0 <= 71.9367596147966
 0 <= xp_9_1 <= 35.9683798073983
 0 <= xp_10_0 <= 54.6754421432803
 0 <= xp_11_0 <= 23.0004864785434
 0 <= xp_11_1 <= 18.4003891828347
 0 <= xp_12_0 <= 1603.03168317012
 0 <= xp_12_1 <= 229.004526167161
 0 <= xp_12_2 <= 229.004526167161
 0 <= xp_13_0 <= 167.487352014231
 0 <= xp_13_1 <= 27.9145586690385
 0 <= xp_13_2 <= 55.829117338077
 0 <= xp_14_0 <= 146.195473102665
 0 <= xp_14_1 <= 73.0977365513326
 0 <= xp_15_0 <= 505.616408474036
 0 <= xp_16_0 <= 2633.1614077393
 0 <= xp_17_0 <= 131.63580007466
 0 <= xp_17_1 <= 164.544750093325
 0 <= xp_18_0 <= 198.86293626766
 0 <= xp_18_1 <= 79.545174507064
 0 <= xp_18_2 <= 39.772587253532
 0 <= xp_18_3 <= 39.772587253532
 0 <= xp_19_0 <= 586.402879076768
 0 <= xp_19_1 <= 469.122303261414
 0 <= xp_20_0 <= 127.882704820701
 0 <= xp_21_0 <= 273.705789094666
 0 <= xp_22_0 <= 546.02424725888
 0 <= xp_22_1 <= 682.530309073601
 0 <= xp_23_0 <= 51.849668090202
 0 <= xp_24_0 <= 188.713515250144
 0 <= xp_24_1 <= 113.228109150086
 0 <= xp_24_2 <= 37.7427030500288
 0 <= xp_25_0 <= 577.180779260133
 0 <= xp_26_0 <= 15.3117524271446
 0 <= xp_27_0 <= 336.989984748487
 0 <= xp_28_0 <= 369.833219091499
 0 <= xp_28_1 <= 295.866575273199
 0 <= xp_29_0 <= 2441.33735050825
 0 <= xp_30_0 <= 142.245230821747
 0 <= xp_30_1 <= 40.6414945204992
 0 <= xp_31_0 <= 190.115449664074
 0 <= xp_32_0 <= 1995.82888003147
 0 <= xp_32_1 <= 249.478610003934
 0 <= xp_33_0 <= 8038.80145560221
 0 <= xp_34_0 <= 56.6177054459128
 0 <= xp_34_1 <= 452.941643567302
 0 <= xp_35_0 <= 260.365506937111
 0 <= xp_36_0 <= 318.129585836081
 0 <= xp_37_0 <= 363.933411766209
 0 <= xp_38_0 <= 296.859612149733
 0 <= xp_38_1 <= 37.1074515187166
 0 <= xp_39_0 <= 1569.42176594449
 0 <= xp_40_0 <= 376.448597107232
 0 <= xp_40_1 <= 282.336447830424
 0 <= xp_40_2 <= 188.224298553616
 0 <= xp_41_0 <= 79.713114567066
 0 <= xp_42_0 <= 201.352830200734
 0 <= xp_42_1 <= 100.676415100367
 0 <= xp_42_2 <= 151.01462265055
 0 <= xp_43_0 <= 490.830381452116
 0 <= xp_44_0 <= 457.446818220401
 0 <= xp_45_0 <= 42.4523264718258
 0 <= xp_46_0 <= 1601.5567313388
 0 <= xp_47_0 <= 876.778544562073
 0 <= xp_48_0 <= 2899.30989413387
 0 <= xp_49_0 <= 87.8618583480357
 0 <= xp_50_0 <= 521.607222882928
 0 <= xp_50_1 <= 260.803611441464
 0 <= xp_51_0 <= 707.823542458259
 0 <= xp_52_0 <= 660.771118690725
 0 <= xp_53_0 <= 126.30552860503
 0 <= xp_53_1 <= 63.1527643025148
 0 <= xp_54_0 <= 3684.48078683569
 0 <= xp_55_0 <= 1182.29072067278
 0 <= xp_56_0 <= 95.5505923994344
 0 <= xp_57_0 <= 182.718785282244
 0 <= xp_57_1 <= 22.8398481602805
 0 <= xp_58_0 <= 3023.62204724409
 0 <= xp_58_1 <= 503.937007874016
 0 <= xp_58_2 <= 503.937007874016
 0 <= xp_58_3 <= 503.937007874016
 0 <= xp_59_0 <= 10618.4045876843
 0 <= xp_60_0 <= 450.80953497945
 0 <= xp_60_1 <= 225.404767489725
 0 <= xp_61_0 <= 1341.22043136865
 0 <= xp_61_1 <= 1072.97634509492
 0 <= xp_62_0 <= 130.905625900738
 0 <= xp_63_0 <= 73.0539261008973
 0 <= xp_63_1 <= 58.4431408807178
 0 <= xp_64_0 <= 991.978123981749
 0 <= xp_65_0 <= 463.222495936124
 0 <= xp_65_1 <= 57.9028119920155
 0 <= xp_66_0 <= 1675.94687617798
 0 <= xp_67_0 <= 313.93108433603
 0 <= xp_67_1 <= 89.6945955245799
 0 <= xp_68_0 <= 489.932267218191
 0 <= xp_68_1 <= 979.864534436383
 0 <= xp_69_0 <= 1714.45626211062
 0 <= xp_70_0 <= 630.147613836435
 0 <= xp_71_0 <= 70.7100670026076
 0 <= xp_72_0 <= 597.61835438821
 0 <= xp_73_0 <= 920.808047249571
 0 <= xp_74_0 <= 845.308037666035
 0 <= xp_74_1 <= 105.663504708254
 0 <= xp_75_0 <= 1759.80007831118
 0 <= xp_76_0 <= 1718.00490859588
 0 <= xp_77_0 <= 317.11464373433
 0 <= xp_77_1 <= 63.4229287468659
 0 <= xp_77_2 <= 190.268786240598
 0 <= xp_78_0 <= 3103.01388517463
 0 <= xp_78_1 <= 3103.01388517463
 0 <= xp_78_2 <= 12412.0555406985
 0 <= xp_78_3 <= 6206.02777034927
 0 <= xp_78_4 <= 3103.01388517463
 0 <= xp_79_0 <= 590.637889285515
 0 <= xp_79_1 <= 354.382733571309
 0 <= xp_79_2 <= 118.127577857103
 0 <= xp_80_0 <= 150.006982290538
 0 <= xp_80_1 <= 75.0034911452691
 0 <= xp_81_0 <= 144.647503853951
 0 <= xp_81_1 <= 57.8590015415802
 0 <= xp_81_2 <= 57.8590015415802
 0 <= xp_82_0 <= 194.985711404134
 0 <= xp_82_1 <= 24.3732139255168
 0 <= xp_83_0 <= 502.856350096611
 0 <= xp_84_0 <= 888.278787801345
 0 <= xp_85_0 <= 135.965732926018
 0 <= xp_85_1 <= 271.931465852036
 0 <= xp_86_0 <= 171.123619400363
 0 <= xp_87_0 <= 141.025839951297
 0 <= xp_88_0 <= 424.457549042605
 0 <= xp_89_0 <= 1970.53564664681
 0 <= xp_89_1 <= 246.316955830851
 0 <= xp_90_0 <= 12035.9355219696
 0 <= xp_90_1 <= 4814.37420878783
 0 <= xp_90_2 <= 4814.37420878783
 0 <= xp_91_0 <= 1509.2335087881
 0 <= xp_91_1 <= 1207.38680703048
 0 <= xp_92_0 <= 51.9299872493335
 0 <= xp_92_1 <= 14.8371392140953
 0 <= xp_93_0 <= 130.248469144208
 0 <= xp_94_0 <= 184.106116212696
 0 <= xp_94_1 <= 26.3008737446709
 0 <= xp_94_2 <= 26.3008737446709
 0 <= xp_95_0 <= 27.2208932038126
 0 <= xp_95_1 <= 20.4156699028594
 0 <= xp_95_2 <= 13.6104466019063
 0 <= xp_96_0 <= 89.6507850741446
 0 <= xp_96_1 <= 25.6145100211842
 0 <= xp_97_0 <= 526.776856034296
 0 <= xp_98_0 <= 95.2439192463872
 0 <= xp_98_1 <= 47.6219596231936
 0 <= xp_99_0 <= 10.9088021583949
 0 <= xp_99_1 <= 5.45440107919743
 0 <= xp_100_0 <= 502.659203069652
 0 <= xp_101_0 <= 249.719567481328
 0 <= xp_102_0 <= 74.9158702443984
 0 <= xp_103_0 <= 1438.91043409767
 0 <= xp_104_0 <= 131.82564535988
 0 <= xp_105_0 <= 1288.02724279843
 0 <= xp_105_1 <= 161.003405349804
 0 <= xp_106_0 <= 41.4008756613781
 0 <= xp_107_0 <= 449.495221466391
 0 <= xp_108_0 <= 188.574782157099
 0 <= xp_108_1 <= 282.862173235648
 0 <= xp_108_2 <= 377.149564314198
 0 <= xp_109_0 <= 536.751035250071
 0 <= xp_109_1 <= 429.400828200057
 0 <= xp_110_0 <= 133.13995887294
 0 <= xp_111_0 <= 2273.67475669227
 0 <= xp_111_1 <= 649.621359054936
 0 <= xp_112_0 <= 4678.75895946529
 0 <= xp_113_0 <= 425.180421474787
 0 <= xp_114_0 <= 2396.51925971291
 0 <= xp_115_0 <= 147.203113462678
 0 <= xp_115_1 <= 73.6015567313388
 0 <= xp_116_0 <= 106.415584107394
 0 <= xp_116_1 <= 53.207792053697
 0 <= xp_117_0 <= 1942.22679392386
 0 <= xp_118_0 <= 3153.03811783003
 0 <= xp_119_0 <= 55.7853068876417
 0 <= xp_119_1 <= 6.97316336095521
 0 <= xp_120_0 <= 1445.65724346471
 0 <= xp_120_1 <= 481.885747821571
 0 <= xp_120_2 <= 240.942873910785
 0 <= xp_121_0 <= 75.5073113252752
 0 <= xp_122_0 <= 2273.56523056619
 0 <= xp_123_0 <= 456.504893536042
 0 <= xp_123_1 <= 57.0631116920052
 0 <= xp_124_0 <= 137.608624817342
 0 <= xp_125_0 <= 18.1813369306581
 0 <= xp_125_1 <= 9.09066846532905
 0 <= xp_126_0 <= 2818.40659566331
 0 <= xp_126_1 <= 8455.21978698994
 0 <= xp_126_2 <= 8455.21978698994
 0 <= xp_126_3 <= 2818.40659566331
 0 <= xp_126_4 <= 2818.40659566331
 0 <= xp_127_0 <= 256.232721112712
 0 <= xp_127_1 <= 320.29090139089
 0 <= xp_128_0 <= 180.411434892651
 0 <= xp_128_1 <= 90.2057174463253
 0 <= xp_128_2 <= 135.308576169488
 0 <= xp_129_0 <= 21.759190382876
 0 <= xp_129_1 <= 27.1989879785949
 0 <= xp_130_0 <= 403.428532833651
 0 <= xp_131_0 <= 255.78731486662
 0 <= xp_131_1 <= 341.049753155493
 0 <= xp_131_2 <= 170.524876577747

End
